 200 46 
 29 32 38 17 10 61 87 75 1 61 91 66 
 13 97 14 64 52 17 98 46 86 53 97 58 
 4 32 16 74 94 70 7 47 29 59 31 76 
 84 41 100 8 17 62 44 29 75 31 
 5 
 7 18 21 32 35 
 37 
 1 2 3 5 6 7 9 10 12 13 14 15 
 16 17 19 20 21 22 24 25 26 27 28 30 
 33 34 35 36 38 39 40 41 42 43 44 45 
 46 
 4 
 17 30 32 44 
 15 
 3 5 6 12 16 19 22 23 25 29 31 32 
 33 44 46 
 35 
 2 3 4 5 6 8 9 10 11 12 13 14 
 15 17 18 19 21 22 23 24 26 27 30 32 
 35 36 37 38 39 40 41 42 43 44 46 
 27 
 2 5 7 8 10 11 12 14 16 18 19 20 
 22 23 24 25 26 30 31 32 33 34 40 42 
 43 44 45 
 44 
 1 2 3 4 5 6 7 9 10 11 12 13 
 14 15 17 18 19 20 21 22 23 24 25 26 
 27 28 29 30 31 32 33 34 35 36 37 38 
 39 40 41 42 43 44 45 46 
 29 
 4 5 6 9 10 12 13 14 16 18 19 20 
 21 22 23 25 26 27 28 30 32 33 34 36 
 37 39 40 42 45 
 29 
 2 4 5 9 10 12 13 15 16 17 19 20 
 21 22 25 27 28 31 32 33 36 37 38 39 
 41 42 43 44 45 
 17 
 1 2 3 5 7 8 10 12 14 22 23 27 
 29 35 38 44 46 
 9 
 2 6 10 20 24 31 34 37 42 
 27 
 3 4 9 10 11 13 14 17 20 21 22 23 
 24 25 27 28 29 30 31 32 38 39 41 43 
 44 45 46 
 15 
 6 7 12 17 18 19 23 24 30 32 34 35 
 43 44 46 
 22 
 3 4 8 9 11 12 14 17 19 24 25 26 
 29 31 35 36 39 40 41 42 44 46 
 8 
 7 12 16 27 33 34 42 44 
 9 
 1 2 6 7 9 13 18 23 26 
 10 
 1 3 10 17 25 27 34 40 41 44 
 44 
 1 2 3 4 5 6 7 8 9 11 13 14 
 15 16 17 18 19 20 21 22 23 24 25 26 
 27 28 29 30 31 32 33 34 35 36 37 38 
 39 40 41 42 43 44 45 46 
 9 
 2 5 6 11 16 19 20 29 43 
 14 
 6 8 9 13 14 16 20 23 24 29 32 38 
 39 46 
 26 
 3 6 8 9 10 11 14 15 17 18 20 22 
 23 24 33 35 36 37 38 39 40 41 42 43 
 45 46 
 33 
 1 3 4 6 7 8 9 10 12 13 14 15 
 16 17 18 20 21 22 23 25 26 30 31 32 
 33 34 36 38 39 40 42 44 46 
 28 
 2 3 6 7 8 10 11 12 14 15 17 19 
 20 23 24 25 26 29 30 31 32 34 37 38 
 42 43 44 45 
 37 
 1 2 3 4 5 6 7 13 14 15 16 17 
 18 19 20 21 22 24 25 27 28 29 30 31 
 32 33 34 36 37 38 39 40 41 42 43 44 
 46 
 17 
 1 5 6 8 11 15 22 23 27 32 36 38 
 40 41 43 44 46 
 9 
 1 6 9 14 27 28 30 36 37 
 24 
 1 2 3 6 11 13 15 16 22 24 27 28 
 29 31 32 33 36 37 38 39 40 41 42 45 
 37 
 1 2 3 4 6 8 9 10 11 12 13 14 
 15 16 18 19 20 21 22 23 25 26 27 28 
 30 31 34 35 36 37 39 40 41 42 43 45 
 46 
 45 
 1 2 3 4 5 6 7 8 9 10 11 12 
 13 14 15 16 17 18 19 20 21 22 23 24 
 25 26 27 28 29 30 31 32 33 34 35 36 
 37 38 39 40 41 43 44 45 46 
 11 
 2 4 8 9 12 15 17 19 23 27 44 
 22 
 1 2 3 6 8 11 14 16 17 19 22 23 
 24 25 28 30 32 35 36 37 39 46 
 26 
 1 2 3 5 6 8 9 11 12 15 19 20 
 22 23 25 26 27 29 30 31 32 35 36 42 
 43 45 
 35 
 2 3 4 5 7 9 10 11 12 14 15 16 
 17 18 19 20 21 23 24 25 26 27 28 29 
 31 32 35 37 38 39 40 42 44 45 46 
 19 
 1 2 4 5 9 10 12 13 20 21 22 25 
 28 30 35 37 41 43 46 
 36 
 1 2 3 4 5 6 7 8 9 10 11 12 
 14 16 17 18 20 22 24 25 26 27 28 30 
 31 32 36 37 38 39 40 41 43 44 45 46 
 18 
 3 5 6 7 8 10 12 14 20 22 24 26 
 31 33 36 39 42 44 
 16 
 6 7 9 15 18 20 23 29 30 35 36 37 
 38 41 43 45 
 37 
 2 3 5 6 8 9 10 11 12 13 15 16 
 17 18 20 21 22 23 24 25 26 27 28 29 
 30 32 34 35 36 37 38 40 41 43 44 45 
 46 
 24 
 4 6 7 8 9 10 13 15 21 23 25 26 
 27 29 31 32 33 34 36 42 43 44 45 46 
 5 
 4 8 12 26 30 
 33 
 1 3 5 6 9 10 11 12 14 15 16 17 
 18 20 21 22 23 24 25 26 27 28 30 31 
 34 35 36 39 40 42 43 44 46 
 26 
 1 2 3 5 6 7 9 11 13 14 15 18 
 20 21 24 25 26 30 32 33 35 36 39 41 
 42 45 
 37 
 1 2 5 6 7 8 9 10 11 12 13 14 
 15 16 17 19 20 21 23 24 26 29 30 31 
 32 33 34 36 37 38 39 40 41 42 43 44 
 45 
 10 
 1 3 11 21 22 25 38 39 43 45 
 26 
 4 7 11 12 13 14 15 16 17 20 21 22 
 23 25 26 30 32 35 36 38 39 40 42 44 
 45 46 
 28 
 2 5 10 11 13 14 15 16 19 21 22 23 
 24 26 27 28 29 30 31 33 34 37 38 41 
 42 44 45 46 
 6 
 9 10 20 30 34 35 
 38 
 1 2 4 5 6 7 9 10 12 13 14 15 
 17 18 19 20 21 22 23 24 25 27 28 29 
 30 31 32 34 36 37 38 39 41 42 43 44 
 45 46 
 2 
 26 38 
 42 
 1 2 3 4 5 6 8 9 10 11 12 13 
 14 15 16 17 18 19 20 21 22 23 25 26 
 27 28 30 31 32 33 35 36 37 38 39 40 
 41 42 43 44 45 46 
 12 
 2 4 5 22 23 26 29 30 32 33 36 40 
 19 
 7 16 18 20 22 23 24 25 26 28 31 32 
 33 35 38 39 42 44 46 
 38 
 1 3 4 5 6 8 9 10 12 14 15 16 
 17 18 19 20 21 22 23 24 25 26 27 29 
 30 32 33 34 35 36 37 38 39 41 42 43 
 44 46 
 7 
 13 21 28 29 38 44 45 
 31 
 2 6 7 9 10 11 12 13 14 15 16 17 
 18 19 24 25 26 27 28 30 31 32 34 35 
 37 38 39 40 41 43 46 
 34 
 1 2 3 4 5 7 9 10 12 13 14 15 
 16 17 19 21 22 24 26 27 28 30 31 34 
 36 37 39 40 41 42 43 44 45 46 
 26 
 2 3 4 5 6 10 11 22 25 26 27 28 
 29 30 31 33 34 35 36 37 38 39 41 43 
 45 46 
 45 
 1 2 3 4 5 6 7 8 9 10 11 12 
 13 14 15 16 17 19 20 21 22 23 24 25 
 26 27 28 29 30 31 32 33 34 35 36 37 
 38 39 40 41 42 43 44 45 46 
 8 
 2 10 16 21 22 32 37 45 
 36 
 1 3 4 5 8 9 10 12 13 14 15 16 
 17 19 20 21 23 24 26 27 28 29 30 31 
 32 33 34 35 36 37 40 41 42 44 45 46 
 12 
 8 10 12 14 15 24 26 28 30 31 33 42 
 17 
 3 7 11 13 15 16 17 19 24 28 30 36 
 38 39 42 43 46 
 37 
 2 3 5 6 9 10 11 13 14 15 16 17 
 19 20 21 22 23 24 25 26 27 28 30 31 
 32 33 34 35 36 37 38 39 41 42 43 44 
 46 
 25 
 1 2 3 4 5 7 8 9 10 12 13 14 
 16 17 20 22 24 27 28 29 32 33 40 43 
 44 
 30 
 2 4 5 6 9 11 12 13 14 15 16 17 
 18 19 23 24 26 29 31 33 35 36 37 39 
 40 41 42 44 45 46 
 11 
 8 11 18 23 24 29 35 36 41 42 43 
 38 
 1 2 3 4 5 8 10 11 13 14 15 16 
 17 18 19 22 23 25 26 27 28 29 30 32 
 33 34 35 36 37 38 39 40 41 42 43 44 
 45 46 
 23 
 4 6 8 9 13 18 19 20 21 22 23 25 
 26 28 29 30 32 36 37 40 41 42 43 
 28 
 1 2 4 8 9 12 13 14 15 17 18 19 
 20 23 25 29 31 32 33 34 36 37 38 41 
 42 43 45 46 
 43 
 1 2 3 4 5 6 7 9 10 11 13 14 
 15 16 17 18 19 20 21 22 23 24 25 26 
 27 28 29 30 31 32 33 34 35 36 37 39 
 40 41 42 43 44 45 46 
 38 
 1 2 3 4 5 6 8 11 12 13 14 15 
 16 17 18 19 20 22 23 24 26 27 28 29 
 30 31 33 34 35 37 38 39 41 42 43 44 
 45 46 
 26 
 1 2 3 5 8 11 12 13 14 17 19 20 
 22 24 25 26 27 31 32 33 35 37 38 39 
 41 46 
 17 
 1 2 6 7 10 12 13 19 20 22 26 27 
 28 29 38 39 45 
 26 
 1 2 8 9 13 16 17 19 20 21 23 26 
 27 28 30 34 36 37 38 39 40 41 42 43 
 44 46 
 8 
 2 7 8 13 17 18 37 43 
 3 
 4 41 46 
 28 
 1 3 4 5 7 8 9 10 13 14 15 18 
 19 20 22 23 24 25 26 27 30 32 34 35 
 39 41 44 45 
 39 
 1 2 3 4 6 8 9 10 11 12 13 14 
 16 17 18 19 20 21 22 23 24 26 27 28 
 29 31 32 34 36 37 38 39 40 41 42 43 
 44 45 46 
 28 
 1 2 3 4 5 6 7 8 9 10 11 13 
 14 17 18 21 22 23 25 30 31 34 35 39 
 40 42 45 46 
 4 
 19 22 25 40 
 23 
 3 5 8 9 10 13 14 15 16 19 21 22 
 24 28 29 30 31 34 35 36 40 41 45 
 2 
 27 28 
 42 
 1 2 3 4 5 7 8 9 10 11 12 13 
 14 15 16 17 18 19 20 21 22 23 24 26 
 27 28 29 30 31 32 33 34 35 37 38 40 
 41 42 43 44 45 46 
 23 
 1 6 8 9 10 12 15 21 23 24 25 28 
 29 32 34 35 36 37 38 40 44 45 46 
 19 
 1 3 4 6 10 12 13 14 16 19 22 25 
 29 33 36 37 38 42 46 
 31 
 1 2 3 4 6 7 9 10 11 12 13 15 
 16 17 18 19 20 22 24 25 27 29 30 31 
 33 34 35 36 43 44 46 
 7 
 12 16 19 33 36 39 43 
 28 
 1 2 4 6 7 8 10 11 13 16 17 18 
 19 21 22 23 25 26 27 28 31 33 36 40 
 41 43 45 46 
 45 
 1 2 3 4 5 6 7 8 9 10 11 12 
 13 14 15 16 17 18 19 20 21 22 23 24 
 25 26 27 28 29 30 31 32 33 34 35 36 
 37 38 39 41 42 43 44 45 46 
 19 
 3 5 8 9 11 12 18 19 20 24 26 27 
 29 32 39 41 42 44 46 
 21 
 2 4 7 12 16 18 19 24 25 26 29 30 
 31 35 36 41 42 43 44 45 46 
 6 
 13 14 23 31 34 43 
 9 
 5 10 30 31 34 35 40 42 44 
 39 
 1 2 3 5 6 7 8 9 10 11 12 14 
 15 16 17 19 20 21 22 23 24 25 26 27 
 28 29 30 31 32 33 34 37 38 39 40 41 
 42 44 45 
 5 
 3 10 31 41 42 
 16 
 5 11 18 21 22 24 25 28 29 30 33 37 
 38 39 40 43 
 37 
 1 3 4 6 8 10 11 12 13 14 15 17 
 18 20 21 22 23 24 25 26 27 28 29 30 
 31 32 33 35 36 37 38 39 40 42 43 44 
 45 
 27 
 2 3 5 6 9 10 12 13 14 15 16 19 
 20 21 22 25 28 29 30 32 36 37 40 42 
 44 45 46 
 35 
 1 2 3 4 6 7 9 10 11 12 13 14 
 15 16 17 20 22 24 25 26 27 28 29 30 
 31 32 35 37 38 39 40 41 42 44 45 
 31 
 2 3 4 6 7 8 9 10 11 12 14 16 
 17 19 20 21 22 23 25 26 28 31 34 36 
 37 39 41 42 43 45 46 
 42 
 2 3 4 5 6 7 8 9 10 11 12 13 
 14 15 16 17 18 19 20 21 22 23 25 26 
 27 29 30 31 32 33 34 35 37 38 39 40 
 41 42 43 44 45 46 
 21 
 4 5 7 9 10 13 14 15 16 17 19 20 
 24 25 26 28 30 33 36 40 46 
 25 
 1 2 5 7 8 10 11 13 15 16 18 20 
 22 25 26 27 28 30 31 32 33 34 35 39 
 45 
 23 
 3 8 11 13 14 15 16 17 18 21 22 23 
 26 27 29 30 32 33 34 36 42 43 44 
 16 
 1 3 4 5 6 7 8 14 16 23 24 29 
 31 42 45 46 
 3 
 21 24 34 
 26 
 1 7 8 9 10 11 13 14 16 18 21 22 
 23 26 27 29 30 31 32 33 34 35 36 43 
 44 46 
 14 
 1 4 10 16 17 18 19 23 27 32 33 42 
 43 44 
 44 
 1 2 3 4 5 6 7 8 9 10 11 12 
 13 14 15 16 18 19 21 22 23 24 25 26 
 27 28 29 30 31 32 33 34 35 36 37 38 
 39 40 41 42 43 44 45 46 
 26 
 1 3 4 5 9 10 11 14 18 19 20 21 
 25 26 28 30 31 32 34 35 37 38 40 41 
 43 46 
 18 
 4 8 10 12 13 16 18 20 26 27 30 32 
 33 34 35 40 43 46 
 13 
 1 9 13 14 17 22 23 25 27 30 34 37 
 45 
 32 
 1 2 3 5 6 7 8 9 12 13 14 15 
 16 19 21 24 25 26 27 29 30 33 34 36 
 37 38 41 42 43 44 45 46 
 17 
 2 3 4 7 9 14 18 24 28 31 32 34 
 35 36 41 42 45 
 35 
 2 4 6 7 8 10 11 12 13 14 15 17 
 19 21 22 23 28 29 30 31 32 33 34 35 
 36 37 38 39 40 41 42 43 44 45 46 
 16 
 8 9 13 15 16 21 22 23 30 32 34 35 
 36 41 44 46 
 8 
 6 8 11 13 21 28 31 37 
 40 
 1 2 3 5 6 8 9 10 11 12 13 14 
 15 16 17 18 20 21 22 23 24 25 26 29 
 31 32 33 34 35 36 37 38 39 40 41 42 
 43 44 45 46 
 38 
 1 2 3 4 5 6 7 8 9 11 12 13 
 14 15 17 18 20 24 25 26 27 28 29 30 
 31 32 33 34 35 36 37 38 39 40 41 42 
 44 45 
 35 
 1 3 5 6 7 8 9 11 12 13 14 15 
 17 19 20 22 23 24 25 26 27 29 30 31 
 32 34 35 36 37 38 39 41 42 44 46 
 30 
 1 3 4 5 6 11 13 15 16 17 19 21 
 22 23 24 26 27 28 30 31 32 33 34 35 
 40 41 42 43 44 45 
 32 
 1 2 4 5 6 7 8 9 10 11 13 14 
 15 18 19 20 21 23 25 28 30 31 33 34 
 35 38 39 40 41 42 43 44 
 34 
 1 2 3 4 6 7 8 10 12 13 14 16 
 17 18 19 20 23 25 26 27 28 30 31 32 
 33 34 35 37 38 39 41 42 44 45 
 28 
 2 4 5 6 7 9 10 11 12 13 15 17 
 18 21 26 29 31 32 33 34 35 36 38 40 
 41 44 45 46 
 27 
 1 3 4 6 7 10 11 12 13 16 18 19 
 20 22 24 26 27 29 33 35 36 37 39 40 
 41 43 45 
 14 
 1 3 6 11 12 18 20 22 31 32 36 39 
 42 44 
 3 
 13 23 25 
 6 
 11 22 30 38 42 43 
 22 
 3 4 5 9 10 12 16 17 19 21 22 25 
 27 28 30 32 34 41 42 43 45 46 
 3 
 5 29 36 
 11 
 2 4 9 20 21 24 26 33 40 44 45 
 28 
 4 6 8 10 12 13 15 17 18 19 21 25 
 26 28 29 30 31 32 33 34 36 37 38 40 
 41 44 45 46 
 8 
 3 4 12 18 19 30 36 46 
 28 
 1 2 4 6 7 8 9 10 11 16 17 19 
 21 22 24 26 27 28 31 32 33 34 36 38 
 39 40 42 44 
 29 
 2 3 4 5 6 11 13 14 15 16 17 19 
 21 24 25 26 27 29 30 34 35 36 37 38 
 39 40 41 45 46 
 41 
 1 4 5 6 8 9 10 12 13 14 15 16 
 17 18 19 20 21 22 23 24 25 27 28 29 
 30 31 32 33 34 35 36 37 38 39 40 41 
 42 43 44 45 46 
 42 
 1 2 3 4 5 6 8 9 10 11 12 13 
 14 15 16 17 18 19 21 22 23 24 25 26 
 27 29 30 31 32 33 35 36 37 38 39 40 
 41 42 43 44 45 46 
 14 
 4 13 14 24 27 28 31 32 35 38 39 40 
 41 45 
 16 
 5 17 18 20 21 25 30 32 33 36 37 39 
 41 42 45 46 
 12 
 9 15 20 23 26 28 29 36 37 41 44 45 
 19 
 5 10 15 16 19 21 23 24 26 28 31 34 
 36 38 39 40 43 44 46 
 42 
 1 2 3 4 5 6 7 8 9 10 11 13 
 14 15 17 18 19 20 21 22 23 24 25 26 
 27 28 29 30 31 32 33 34 35 36 37 38 
 40 41 42 43 44 45 
 43 
 1 2 3 4 5 7 8 9 10 11 12 13 
 14 15 16 18 19 20 21 22 23 24 25 26 
 27 28 29 30 31 32 33 34 35 36 37 39 
 40 41 42 43 44 45 46 
 12 
 3 4 10 11 18 21 24 25 26 28 39 46 
 2 
 8 24 
 41 
 1 3 4 5 6 7 8 9 10 11 12 13 
 14 15 16 17 18 19 20 21 22 23 24 25 
 26 27 28 29 30 31 33 34 35 36 37 38 
 39 40 41 43 46 
 20 
 1 6 7 10 12 13 15 16 18 20 23 24 
 25 26 30 31 32 40 41 46 
 17 
 4 7 9 11 13 14 15 17 28 29 30 32 
 33 36 37 40 42 
 40 
 1 2 4 5 6 7 9 10 11 12 13 14 
 15 18 19 20 21 22 23 24 25 26 28 29 
 30 31 32 34 35 36 37 38 39 40 41 42 
 43 44 45 46 
 35 
 1 2 3 4 6 7 8 10 11 13 14 15 
 17 18 19 20 21 22 23 25 27 30 31 32 
 33 35 36 37 38 39 40 42 43 44 46 
 2 
 9 31 
 19 
 1 2 7 8 9 10 13 14 20 21 25 28 
 32 33 34 38 40 43 45 
 22 
 2 4 8 9 18 19 20 21 22 24 25 26 
 27 31 32 33 34 38 40 43 44 46 
 9 
 9 10 12 23 26 35 40 41 43 
 42 
 1 2 3 4 5 6 7 8 9 10 11 12 
 13 14 15 16 17 18 19 20 21 22 24 25 
 27 28 29 30 32 33 34 35 36 37 38 40 
 41 42 43 44 45 46 
 7 
 2 14 24 26 30 36 41 
 46 
 1 2 3 4 5 6 7 8 9 10 11 12 
 13 14 15 16 17 18 19 20 21 22 23 24 
 25 26 27 28 29 30 31 32 33 34 35 36 
 37 38 39 40 41 42 43 44 45 46 
 35 
 2 3 4 6 7 8 9 10 11 12 13 14 
 16 18 19 20 21 23 25 27 28 29 31 32 
 33 34 35 37 38 40 41 42 43 45 46 
 39 
 1 2 3 4 5 6 7 8 9 10 11 12 
 13 14 15 16 17 18 19 20 21 22 24 25 
 26 27 28 29 31 32 33 35 37 38 40 42 
 43 44 46 
 21 
 3 4 6 9 10 13 14 21 23 24 26 27 
 29 30 31 32 35 37 38 39 43 
 2 
 24 33 
 7 
 3 12 20 21 23 30 46 
 25 
 1 3 4 5 6 9 10 11 13 14 15 16 
 18 21 23 24 25 28 32 37 38 39 41 43 
 46 
 7 
 1 2 3 25 40 44 46 
 22 
 1 2 4 5 6 9 10 12 14 18 19 22 
 24 25 28 30 36 38 39 42 44 45 
 23 
 1 4 5 9 13 14 15 16 17 19 20 23 
 28 29 30 31 35 36 38 39 43 44 46 
 32 
 1 2 3 4 6 7 8 9 10 12 14 15 
 16 17 18 19 24 25 27 28 29 31 32 33 
 34 35 39 40 41 44 45 46 
 38 
 1 2 3 4 5 6 7 9 10 11 12 14 
 15 16 17 18 19 20 21 22 23 24 25 26 
 27 29 30 31 33 34 35 37 38 39 40 41 
 43 44 
 38 
 3 4 5 6 7 9 10 11 12 13 14 15 
 16 17 18 19 21 22 24 25 26 27 28 29 
 30 31 32 35 36 37 39 40 41 42 43 44 
 45 46 
 30 
 2 3 5 6 7 9 11 12 13 14 15 16 
 17 18 21 22 28 29 30 31 32 34 35 38 
 39 40 43 44 45 46 
 26 
 1 2 7 8 9 10 14 16 17 19 21 22 
 27 28 32 33 34 35 36 37 38 39 40 41 
 44 46 
 39 
 1 2 3 4 5 6 7 8 9 10 11 12 
 13 16 17 19 20 23 24 25 27 28 29 30 
 31 32 33 34 35 36 37 38 39 41 42 43 
 44 45 46 
 40 
 1 3 4 5 6 7 8 10 11 12 13 14 
 15 16 17 18 19 20 21 22 24 25 26 27 
 29 30 31 32 33 34 35 36 37 38 39 40 
 42 43 45 46 
 42 
 1 2 3 4 5 6 8 9 10 11 12 13 
 15 16 17 18 19 20 21 22 23 24 25 26 
 27 28 29 30 31 32 33 34 35 36 37 38 
 39 40 41 42 45 46 
 32 
 1 2 4 5 6 7 8 9 10 11 13 15 
 16 20 22 23 24 26 27 28 30 31 32 35 
 36 38 40 41 43 44 45 46 
 9 
 3 4 9 14 25 35 39 45 46 
 31 
 1 2 3 4 6 7 10 11 13 14 16 18 
 20 21 22 25 26 28 29 30 32 33 35 36 
 37 38 39 41 43 44 46 
 16 
 1 4 7 10 13 16 18 19 23 25 27 29 
 35 37 40 41 
 7 
 3 6 9 29 33 40 41 
 19 
 3 6 10 11 16 18 20 23 25 27 29 33 
 35 36 39 41 43 44 45 
 13 
 1 4 6 14 19 21 26 31 34 36 40 44 
 46 
 12 
 3 4 8 10 11 14 27 33 34 36 44 45 
 39 
 1 2 3 4 5 7 8 10 11 12 13 14 
 15 16 17 18 19 20 21 23 24 26 27 29 
 30 31 32 33 34 35 36 37 38 39 40 41 
 42 44 46 
 15 
 1 3 5 7 9 11 17 22 26 28 31 32 
 33 35 37 
 31 
 2 4 6 7 9 11 12 13 14 17 18 19 
 21 22 24 25 26 27 28 30 31 32 34 35 
 36 37 38 40 43 44 46 
 46 
 1 2 3 4 5 6 7 8 9 10 11 12 
 13 14 15 16 17 18 19 20 21 22 23 24 
 25 26 27 28 29 30 31 32 33 34 35 36 
 37 38 39 40 41 42 43 44 45 46 
 27 
 2 4 5 6 7 10 11 12 18 20 21 22 
 24 25 28 30 31 34 35 36 38 39 40 41 
 43 44 45 
 45 
 1 2 3 4 5 6 7 8 9 10 11 12 
 13 14 15 16 17 18 19 20 21 22 23 24 
 25 26 27 28 29 30 31 32 33 34 35 36 
 37 39 40 41 42 43 44 45 46 
 4 
 2 15 25 29 
 21 
 1 2 3 4 9 10 11 17 18 22 26 27 
 31 32 33 37 38 39 40 41 42 
 38 
 1 2 3 4 6 7 8 9 10 11 12 14 
 15 16 19 20 21 22 23 25 26 27 28 29 
 30 31 32 33 34 35 36 39 41 42 43 44 
 45 46 
 21 
 1 2 5 12 13 17 24 25 26 27 29 33 
 34 35 36 37 38 39 40 43 46 
 17 
 1 7 11 12 14 17 21 25 26 28 31 32 
 35 37 38 41 43 
 41 
 1 2 3 4 5 6 7 8 9 10 11 12 
 14 15 16 17 18 19 20 21 22 24 26 27 
 28 30 31 32 33 34 35 36 37 38 39 40 
 41 42 44 45 46 
 25 
 1 3 4 5 7 10 11 13 16 17 18 19 
 21 22 23 24 25 27 29 31 34 35 36 41 
 45 
 3 
 14 25 34 
 9 
 3 9 14 15 18 22 30 36 46 
 35 
 1 2 3 4 5 6 7 8 9 10 12 13 
 14 15 16 17 19 20 21 22 23 26 28 29 
 30 31 33 35 37 38 39 41 42 44 46 
 40 
 1 2 3 4 5 6 7 8 10 11 12 14 
 15 16 17 19 20 21 22 23 24 25 26 27 
 28 29 30 31 32 33 34 35 37 38 39 40 
 41 42 43 46 
 21 
 2 4 5 7 8 10 11 15 19 21 23 24 
 25 30 32 33 35 41 44 45 46 
 